[470, 320, 320, 370, 352, 336, 296, 296, 270, 246, 246, 232, 188, 180, 158, 124, 108, 108, 92, 92, 96, 92, 90, 88, 80, 80, 72, 66, 76, 66, 66, 74, 72, 72, 68, 66, 66, 66, 66, 66, 66, 66, 66, 66, 66, 64, 64, 64, 64, 64, 64, 64, 64, 64, 64, 64, 66, 66, 66, 66, 66, 66, 66, 66, 66, 64, 64, 64, 64, 64, 64, 64, 64, 64, 66, 66, 66, 66, 64, 64, 64, 64, 64, 64, 64, 64, 64, 64, 64, 64, 64, 64, 64, 64, 64, 66, 66, 66, 64, 66, 66, 64, 64, 64, 66, 64, 64, 64, 64, 64, 64, 64, 64, 64, 66, 66, 64, 64, 64, 64, 64, 64, 66, 64, 64, 64, 64, 64, 64, 64, 64, 64, 66, 66, 66, 66, 66, 64, 64, 66, 66, 66, 64, 64, 66, 64, 64, 64, 66, 64, 64, 64, 64, 64, 64, 64, 64, 64, 64, 64, 64, 64, 66, 66, 66, 66, 66, 66, 66, 66, 66, 64, 64, 64, 66, 64, 64, 64, 64, 64, 64, 64, 64, 64, 64, 64, 64, 64, 64, 64, 64, 64, 64, 64, 64, 64, 64, 64, 64, 64]